c 0.002439260482788086 (encode time in sec)
p cnf 196 242
1 2 3 4 5 0
1 2 3 -4 5 0
1 2 -3 4 5 0
1 2 -3 -4 5 0
1 -2 3 4 5 0
1 -2 3 -4 5 0
1 -2 -3 4 5 0
1 -2 -3 -4 5 0
-1 2 3 4 5 0
-1 2 3 -4 5 0
-1 2 -3 4 0
-1 2 -3 -4 0
-1 -2 3 4 0
-1 -2 3 -4 0
-1 -2 -3 4 0
-1 -2 -3 -4 0
6 1 2 3 4 7 0
6 1 2 3 -4 11 0
6 1 2 -3 4 8 0
6 1 2 -3 -4 9 0
6 1 -2 3 4 10 0
6 1 -2 3 -4 12 0
6 1 -2 -3 4 13 0
6 1 -2 -3 -4 14 0
6 -1 2 3 4 15 0
6 -1 2 3 -4 16 0
-6 1 2 3 4 19 0
-6 1 2 3 -4 23 0
-6 1 2 -3 4 25 0
-6 1 2 -3 -4 26 0
-6 1 -2 3 4 20 0
-6 1 -2 3 -4 21 0
-6 1 -2 -3 4 22 0
-6 1 -2 -3 -4 17 0
-6 -1 2 3 4 24 0
-6 -1 2 3 -4 18 0
27 28 29 30 6 1 2 3 4 160 0
27 28 29 30 6 1 2 3 -4 177 0
27 28 29 30 6 1 2 -3 4 74 0
27 28 29 30 6 1 2 -3 -4 97 0
27 28 29 30 6 1 -2 3 4 117 0
27 28 29 30 6 1 -2 3 -4 59 0
27 28 29 30 6 1 -2 -3 4 60 0
27 28 29 30 6 1 -2 -3 -4 31 0
27 28 29 30 6 -1 2 3 4 75 0
27 28 29 30 6 -1 2 3 -4 118 0
27 28 29 30 -6 1 2 3 4 98 0
27 28 29 30 -6 1 2 3 -4 87 0
27 28 29 30 -6 1 2 -3 4 99 0
27 28 29 30 -6 1 2 -3 -4 173 0
27 28 29 30 -6 1 -2 3 4 141 0
27 28 29 30 -6 1 -2 3 -4 107 0
27 28 29 30 -6 1 -2 -3 4 90 0
27 28 29 30 -6 1 -2 -3 -4 164 0
27 28 29 30 -6 -1 2 3 4 194 0
27 28 29 30 -6 -1 2 3 -4 137 0
27 28 29 -30 6 1 2 3 4 145 0
27 28 29 -30 6 1 2 3 -4 111 0
27 28 29 -30 6 1 2 -3 4 146 0
27 28 29 -30 6 1 2 -3 -4 61 0
27 28 29 -30 6 1 -2 3 4 161 0
27 28 29 -30 6 1 -2 3 -4 32 0
27 28 29 -30 6 1 -2 -3 4 62 0
27 28 29 -30 6 1 -2 -3 -4 130 0
27 28 29 -30 6 -1 2 3 4 75 0
27 28 29 -30 6 -1 2 3 -4 119 0
27 28 29 -30 -6 1 2 3 4 131 0
27 28 29 -30 -6 1 2 3 -4 43 0
27 28 29 -30 -6 1 2 -3 4 188 0
27 28 29 -30 -6 1 2 -3 -4 44 0
27 28 29 -30 -6 1 -2 3 4 77 0
27 28 29 -30 -6 1 -2 3 -4 189 0
27 28 29 -30 -6 1 -2 -3 4 100 0
27 28 29 -30 -6 1 -2 -3 -4 152 0
27 28 29 -30 -6 -1 2 3 4 168 0
27 28 29 -30 -6 -1 2 3 -4 132 0
27 28 -29 30 6 1 2 3 4 145 0
27 28 -29 30 6 1 2 3 -4 178 0
27 28 -29 30 6 1 2 -3 4 55 0
27 28 -29 30 6 1 2 -3 -4 45 0
27 28 -29 30 6 1 -2 3 4 117 0
27 28 -29 30 6 1 -2 3 -4 80 0
27 28 -29 30 6 1 -2 -3 4 78 0
27 28 -29 30 6 1 -2 -3 -4 56 0
27 28 -29 30 6 -1 2 3 4 121 0
27 28 -29 30 6 -1 2 3 -4 76 0
27 28 -29 30 -6 1 2 3 4 176 0
27 28 -29 30 -6 1 2 3 -4 190 0
27 28 -29 30 -6 1 2 -3 4 99 0
27 28 -29 30 -6 1 2 -3 -4 44 0
27 28 -29 30 -6 1 -2 3 4 91 0
27 28 -29 30 -6 1 -2 3 -4 120 0
27 28 -29 30 -6 1 -2 -3 4 68 0
27 28 -29 30 -6 1 -2 -3 -4 33 0
27 28 -29 30 -6 -1 2 3 4 144 0
27 28 -29 30 -6 -1 2 3 -4 132 0
27 28 -29 -30 6 1 2 3 4 96 0
27 28 -29 -30 6 1 2 3 -4 69 0
27 28 -29 -30 6 1 2 -3 4 93 0
27 28 -29 -30 6 1 2 -3 -4 34 0
27 28 -29 -30 6 1 -2 3 4 101 0
27 28 -29 -30 6 1 -2 3 -4 92 0
27 28 -29 -30 6 1 -2 -3 4 63 0
27 28 -29 -30 6 1 -2 -3 -4 130 0
27 28 -29 -30 6 -1 2 3 4 94 0
27 28 -29 -30 6 -1 2 3 -4 133 0
27 28 -29 -30 -6 1 2 3 4 79 0
27 28 -29 -30 -6 1 2 3 -4 190 0
27 28 -29 -30 -6 1 2 -3 4 99 0
27 28 -29 -30 -6 1 2 -3 -4 191 0
27 28 -29 -30 -6 1 -2 3 4 70 0
27 28 -29 -30 -6 1 -2 3 -4 142 0
27 28 -29 -30 -6 1 -2 -3 4 162 0
27 28 -29 -30 -6 1 -2 -3 -4 88 0
27 28 -29 -30 -6 -1 2 3 4 168 0
27 28 -29 -30 -6 -1 2 3 -4 58 0
27 -28 29 30 6 1 2 3 4 154 0
27 -28 29 30 6 1 2 3 -4 148 0
27 -28 29 30 6 1 2 -3 4 35 0
27 -28 29 30 6 1 2 -3 -4 147 0
27 -28 29 30 6 1 -2 3 4 95 0
27 -28 29 30 6 1 -2 3 -4 80 0
27 -28 29 30 6 1 -2 -3 4 57 0
27 -28 29 30 6 1 -2 -3 -4 143 0
27 -28 29 30 6 -1 2 3 4 179 0
27 -28 29 30 6 -1 2 3 -4 81 0
27 -28 29 30 -6 1 2 3 4 64 0
27 -28 29 30 -6 1 2 3 -4 149 0
27 -28 29 30 -6 1 2 -3 4 134 0
27 -28 29 30 -6 1 2 -3 -4 109 0
27 -28 29 30 -6 1 -2 3 4 82 0
27 -28 29 30 -6 1 -2 3 -4 155 0
27 -28 29 30 -6 1 -2 -3 4 135 0
27 -28 29 30 -6 1 -2 -3 -4 122 0
27 -28 29 30 -6 -1 2 3 4 180 0
27 -28 29 30 -6 -1 2 3 -4 132 0
27 -28 29 -30 6 1 2 3 4 83 0
27 -28 29 -30 6 1 2 3 -4 171 0
27 -28 29 -30 6 1 2 -3 4 123 0
27 -28 29 -30 6 1 2 -3 -4 124 0
27 -28 29 -30 6 1 -2 3 4 136 0
27 -28 29 -30 6 1 -2 3 -4 163 0
27 -28 29 -30 6 1 -2 -3 4 36 0
27 -28 29 -30 6 1 -2 -3 -4 175 0
27 -28 29 -30 6 -1 2 3 4 121 0
27 -28 29 -30 6 -1 2 3 -4 192 0
27 -28 29 -30 -6 1 2 3 4 46 0
27 -28 29 -30 -6 1 2 3 -4 181 0
27 -28 29 -30 -6 1 2 -3 4 125 0
27 -28 29 -30 -6 1 2 -3 -4 44 0
27 -28 29 -30 -6 1 -2 3 4 37 0
27 -28 29 -30 -6 1 -2 3 -4 38 0
27 -28 29 -30 -6 1 -2 -3 4 100 0
27 -28 29 -30 -6 1 -2 -3 -4 150 0
27 -28 29 -30 -6 -1 2 3 4 138 0
27 -28 29 -30 -6 -1 2 3 -4 137 0
27 -28 -29 30 6 1 2 3 4 196 0
27 -28 -29 30 6 1 2 3 -4 69 0
27 -28 -29 30 6 1 2 -3 4 108 0
27 -28 -29 30 6 1 2 -3 -4 165 0
27 -28 -29 30 6 1 -2 3 4 95 0
27 -28 -29 30 6 1 -2 3 -4 85 0
27 -28 -29 30 6 1 -2 -3 4 47 0
27 -28 -29 30 6 1 -2 -3 -4 156 0
27 -28 -29 30 6 -1 2 3 4 41 0
27 -28 -29 30 6 -1 2 3 -4 119 0
27 -28 -29 30 -6 1 2 3 4 151 0
27 -28 -29 30 -6 1 2 3 -4 166 0
27 -28 -29 30 -6 1 2 -3 4 195 0
27 -28 -29 30 -6 1 2 -3 -4 157 0
27 -28 -29 30 -6 1 -2 3 4 48 0
27 -28 -29 30 -6 1 -2 3 -4 155 0
27 -28 -29 30 -6 1 -2 -3 4 162 0
27 -28 -29 30 -6 1 -2 -3 -4 112 0
27 -28 -29 30 -6 -1 2 3 4 89 0
27 -28 -29 30 -6 -1 2 3 -4 72 0
27 -28 -29 -30 6 1 2 3 4 139 0
27 -28 -29 -30 6 1 2 3 -4 127 0
27 -28 -29 -30 6 1 2 -3 4 35 0
27 -28 -29 -30 6 1 2 -3 -4 140 0
27 -28 -29 -30 6 1 -2 3 4 136 0
27 -28 -29 -30 6 1 -2 3 -4 102 0
27 -28 -29 -30 6 1 -2 -3 4 47 0
27 -28 -29 -30 6 1 -2 -3 -4 167 0
27 -28 -29 -30 6 -1 2 3 4 158 0
27 -28 -29 -30 6 -1 2 3 -4 110 0
27 -28 -29 -30 -6 1 2 3 4 64 0
27 -28 -29 -30 -6 1 2 3 -4 49 0
27 -28 -29 -30 -6 1 2 -3 4 126 0
27 -28 -29 -30 -6 1 2 -3 -4 113 0
27 -28 -29 -30 -6 1 -2 3 4 82 0
27 -28 -29 -30 -6 1 -2 3 -4 103 0
27 -28 -29 -30 -6 1 -2 -3 4 100 0
27 -28 -29 -30 -6 1 -2 -3 -4 104 0
27 -28 -29 -30 -6 -1 2 3 4 65 0
27 -28 -29 -30 -6 -1 2 3 -4 52 0
-27 28 29 30 6 1 2 3 4 139 0
-27 28 29 30 6 1 2 3 -4 84 0
-27 28 29 30 6 1 2 -3 4 182 0
-27 28 29 30 6 1 2 -3 -4 172 0
-27 28 29 30 6 1 -2 3 4 115 0
-27 28 29 30 6 1 -2 3 -4 105 0
-27 28 29 30 6 1 -2 -3 4 50 0
-27 28 29 30 6 1 -2 -3 -4 71 0
-27 28 29 30 6 -1 2 3 4 179 0
-27 28 29 30 6 -1 2 3 -4 183 0
-27 28 29 30 -6 1 2 3 4 67 0
-27 28 29 30 -6 1 2 3 -4 126 0
-27 28 29 30 -6 1 2 -3 4 186 0
-27 28 29 30 -6 1 2 -3 -4 169 0
-27 28 29 30 -6 1 -2 3 4 51 0
-27 28 29 30 -6 1 -2 3 -4 185 0
-27 28 29 30 -6 1 -2 -3 4 159 0
-27 28 29 30 -6 1 -2 -3 -4 54 0
-27 28 29 30 -6 -1 2 3 4 170 0
-27 28 29 30 -6 -1 2 3 -4 66 0
-27 28 29 -30 6 1 2 3 4 196 0
-27 28 29 -30 6 1 2 3 -4 53 0
-27 28 29 -30 6 1 2 -3 4 187 0
-27 28 29 -30 6 1 2 -3 -4 129 0
-27 28 29 -30 6 1 -2 3 4 115 0
-27 28 29 -30 6 1 -2 3 -4 128 0
-27 28 29 -30 6 1 -2 -3 4 40 0
-27 28 29 -30 6 1 -2 -3 -4 174 0
-27 28 29 -30 6 -1 2 3 4 153 0
-27 28 29 -30 6 -1 2 3 -4 73 0
-27 28 29 -30 -6 1 2 3 4 67 0
-27 28 29 -30 -6 1 2 3 -4 184 0
-27 28 29 -30 -6 1 2 -3 4 42 0
-27 28 29 -30 -6 1 2 -3 -4 114 0
-27 28 29 -30 -6 1 -2 3 4 86 0
-27 28 29 -30 -6 1 -2 3 -4 106 0
-27 28 29 -30 -6 1 -2 -3 4 193 0
-27 28 29 -30 -6 1 -2 -3 -4 116 0
-27 28 29 -30 -6 -1 2 3 4 65 0
-27 28 29 -30 -6 -1 2 3 -4 39 0
-27 28 -29 30 0
-27 28 -29 -30 0
-27 -28 29 30 0
-27 -28 29 -30 0
-27 -28 -29 30 0
-27 -28 -29 -30 0
